set R:=
1
2
3
4
5
6;

set A:=
Peds
Ortho;

set C:=
Clinic1
Clinic2;

set T:=
1
2
3
4;

set P:=
one_one;

set Q:=
0
1;

param psi:=
1   1   0
1   2   1  
1   3   0
1   4   -1
2   1   -1
2   2   0
2   3   1
2   4   0
3   1   0
3   2   -1
3   3   0
3   4   1
4   1   1
4   2   0
4   3   -1
4   4   0
5   1   0
5   2   -2
5   3   0
5   4   1
6   1   1
6   2   0
6   3   2
6   4   0;

param naught_p:=
one_one 1;

param s:=
one_one 1;